NAME : bier127.tsp
TYPE : TOUR
DIMENSION : 127
TOUR_LENGTH : 122529.32474142431
TOUR_SECTION
1
7
120
10
115
13
50
51
2
16
37
36
35
40
43
34
42
39
38
26
25
29
32
33
122
28
97
98
123
95
93
127
107
111
112
94
46
118
49
47
53
48
45
103
44
54
57
121
56
5
52
124
55
66
65
99
92
89
125
113
64
58
100
91
61
90
116
60
62
59
104
110
85
86
87
88
109
96
119
63
102
101
83
82
126
81
84
117
78
76
75
69
70
71
68
67
73
74
18
77
79
80
31
27
30
41
14
12
15
106
108
20
17
21
72
8
19
22
4
23
24
6
105
114
11
9
3
-1
